\* Problem: Unknown *\

Maximize
 obj: + xp_0_0 + xp_0_1 + xp_0_2 + xp_0_3 + xp_0_4 + xp_0_5 + xp_1_0
 + xp_1_1 + xp_2_0 + xp_2_1 + xp_2_2 + xp_2_3 + xp_2_4 + xp_3_0 + xp_3_1
 + xp_3_2 + xp_3_3 + xp_4_0 + xp_5_0 + xp_5_1 + xp_6_0 + xp_6_1 + xp_6_2
 + xp_7_0 + xp_7_1 + xp_8_0 + xp_9_0 + xp_10_0 + xp_11_0 + xp_11_1
 + xp_11_2 + xp_11_3 + xp_11_4 + xp_12_0 + xp_13_0 + xp_13_1 + xp_14_0
 + xp_14_1 + xp_15_0 + xp_16_0 + xp_17_0 + xp_17_1 + xp_17_2 + xp_17_3
 + xp_17_4 + xp_18_0 + xp_18_1 + xp_18_2 + xp_18_3 + xp_18_4 + xp_19_0
 + xp_19_1 + xp_19_2 + xp_19_3 + xp_20_0 + xp_20_1 + xp_20_2 + xp_20_3
 + xp_21_0 + xp_21_1 + xp_21_2 + xp_21_3 + xp_21_4 + xp_22_0 + xp_22_1
 + xp_22_2 + xp_22_3 + xp_22_4 + xp_23_0 + xp_23_1 + xp_23_2

Subject To
 r_1: 0 xp_0_0 <= 26.1838588989845
 r_2: + xp_23_2 + xp_18_4 + xp_18_1 + xp_5_1 + xp_2_4
 <= 26.0136785539814
 r_3: + xp_21_1 + xp_6_2 <= 26.7924528301887
 r_4: + xp_18_3 + xp_15_0 <= 27.1553784860558
 r_5: + xp_18_0 <= 25.6936067551267
 r_6: + xp_18_2 <= 26.5090230242688
 r_7: + xp_20_3 <= 26.1838588989845
 r_8: + xp_22_4 + xp_11_3 + xp_3_3 + xp_3_2 + xp_2_1 <= 26.0136785539814
 r_9: + xp_11_1 + xp_6_1 + xp_3_1 <= 26.7924528301887
 r_10: + xp_11_4 + xp_3_0 <= 27.1553784860558
 r_11: + xp_18_2 + xp_11_2 + xp_0_3 <= 25.6936067551267
 r_12: + xp_11_0 <= 26.5090230242688
 r_13: 0 xp_0_0 <= 27.6367006487488
 r_14: + xp_14_0 + xp_0_1 <= 26.0136785539814
 r_15: + xp_21_0 + xp_19_3 <= 26.7924528301887
 r_16: + xp_22_2 + xp_21_3 + xp_19_1 + xp_0_4 + xp_0_2
 <= 27.1553784860558
 r_17: + xp_0_0 <= 25.6936067551267
 r_18: + xp_21_1 + xp_4_0 <= 26.1838588989845
 r_19: + xp_19_0 <= 26.1838588989845
 r_20: + xp_21_4 + xp_21_2 + xp_19_2 + xp_14_1 + xp_0_5 + xp_0_3
 <= 27.6367006487488
 r_21: + xp_20_1 <= 26.0136785539814
 r_22: + xp_21_4 + xp_7_1 <= 26.7924528301887
 r_23: + xp_22_4 + xp_22_3 + xp_3_3 <= 27.1553784860558
 r_24: + xp_23_2 + xp_18_1 + xp_3_2 + xp_0_5 <= 26.5090230242688
 r_25: 0 xp_0_0 <= 27.6367006487488
 r_26: + xp_18_4 + xp_0_1 <= 25.6936067551267
 r_27: + xp_11_3 <= 26.0136785539814
 r_28: + xp_19_2 <= 26.0136785539814
 r_29: + xp_20_2 <= 26.7924528301887
 r_30: + xp_2_0 <= 26.7924528301887
 r_31: + xp_6_2 + xp_6_1 + xp_3_1 + xp_2_3 <= 26.5090230242688
 r_32: + xp_2_2 <= 27.6367006487488
 r_33: + xp_11_1 + xp_2_4 <= 26.7924528301887
 r_34: + xp_19_3 + xp_2_1 <= 26.7924528301887
 r_35: 0 xp_0_0 <= 27.1553784860558
 r_36: + xp_9_0 <= 27.1553784860558
 r_37: + xp_21_3 + xp_17_2 + xp_13_1 + xp_0_4 <= 26.5090230242688
 r_38: + xp_1_1 <= 27.1553784860558
 r_39: + xp_19_1 + xp_17_1 + xp_3_3 <= 27.1553784860558
 r_40: + xp_0_2 <= 25.6936067551267
 r_41: + xp_12_0 + xp_2_3 <= 26.5090230242688
 r_42: + xp_21_3 <= 26.5090230242688
 r_43: + xp_16_0 <= 26.5090230242688
 r_44: + xp_23_2 + xp_23_1 + xp_17_4 <= 26.5090230242688
 r_45: + xp_17_3 + xp_17_2 + xp_3_2 + xp_3_1 <= 27.1553784860558
 r_46: + xp_18_1 + xp_0_5 + xp_0_4 <= 25.6936067551267
 r_47: + xp_22_1 + xp_13_1 <= 27.1553784860558
 r_48: + xp_13_0 <= 26.5090230242688
 r_49: + xp_17_4 <= 27.1553784860558
 r_50: 0 xp_0_0 <= 25.6936067551267
 r_51: + xp_1_1 <= 27.1553784860558
 r_52: + xp_8_0 <= 27.1553784860558
 r_53: + xp_1_0 <= 27.1553784860558
 r_54: + xp_18_3 <= 25.6936067551267
 r_55: + xp_11_4 <= 27.1553784860558
 r_56: + xp_19_1 <= 27.1553784860558
 r_57: + xp_22_2 <= 25.6936067551267
 r_58: + xp_22_3 + xp_5_0 <= 25.6936067551267
 r_59: + xp_22_0 + xp_17_2 + xp_17_1 <= 25.6936067551267
 r_60: + xp_23_1 + xp_17_4 + xp_17_3 + xp_6_0 <= 25.6936067551267
 r_61: + xp_23_0 + xp_22_1 <= 25.6936067551267
 r_62: + xp_17_0 <= 25.6936067551267
 r_63: + xp_23_2 + xp_11_2 + xp_6_2 + xp_5_1 <= 25.6936067551267
 r_64: + xp_22_4 + xp_6_1 <= 25.6936067551267
 r_65: + xp_21_4 + xp_20_1 + xp_19_2 + xp_14_1 + xp_7_1 + xp_2_2
 + xp_0_5 <= 27.6367006487488
 r_66: + xp_21_2 + xp_20_2 + xp_7_0 <= 27.6367006487488
 r_67: + xp_20_3 + xp_10_0 + xp_0_3 <= 27.6367006487488
 r_68: + xp_20_0 <= 27.6367006487488

Bounds
 0 <= xp_0_0 <= 25.6548661123847
 0 <= xp_0_1 <= 13.405221688829
 0 <= xp_0_2 <= 11.8335840668915
 0 <= xp_0_3 <= 1.57163762193758
 0 <= xp_0_4 <= 1.57163762193758
 0 <= xp_0_5 <= 5.13097322247695
 0 <= xp_1_0 <= 19.8767232373568
 0 <= xp_1_1 <= 13.2511488249045
 0 <= xp_2_0 <= 21.9260442043605
 0 <= xp_2_1 <= 5.13097322247695
 0 <= xp_2_2 <= 1.40215131445272
 0 <= xp_2_3 <= 1.40215131445272
 0 <= xp_2_4 <= 2.80430262890544
 0 <= xp_3_0 <= 22.4036967635873
 0 <= xp_3_1 <= 0.939901936839772
 0 <= xp_3_2 <= 1.87980387367954
 0 <= xp_3_3 <= 5.13097322247695
 0 <= xp_4_0 <= 24.6533001393572
 0 <= xp_5_0 <= 19.7226401114858
 0 <= xp_5_1 <= 4.93066002787145
 0 <= xp_6_0 <= 8.8751880501686
 0 <= xp_6_1 <= 8.8751880501686
 0 <= xp_6_2 <= 4.4375940250843
 0 <= xp_7_0 <= 17.0107770961565
 0 <= xp_7_1 <= 4.25269427403912
 0 <= xp_8_0 <= 19.1063076080019
 0 <= xp_9_0 <= 17.719559475163
 0 <= xp_10_0 <= 17.719559475163
 0 <= xp_11_0 <= 25.6548661123847
 0 <= xp_11_1 <= 11.2172515634075
 0 <= xp_11_2 <= 11.2172515634075
 0 <= xp_11_3 <= 7.04158345938424
 0 <= xp_11_4 <= 0.955305118453648
 0 <= xp_12_0 <= 16.6409775940661
 0 <= xp_13_0 <= 12.9429825731625
 0 <= xp_13_1 <= 3.23574564329064
 0 <= xp_14_0 <= 12.3266500696786
 0 <= xp_14_1 <= 3.08166251741965
 0 <= xp_15_0 <= 15.2542294612273
 0 <= xp_16_0 <= 14.6378969577434
 0 <= xp_17_0 <= 27.3959900418072
 0 <= xp_17_1 <= 3.43604857594969
 0 <= xp_17_2 <= 3.43604857594969
 0 <= xp_17_3 <= 5.13097322247695
 0 <= xp_17_4 <= 3.43604857594969
 0 <= xp_18_0 <= 23.5901419637671
 0 <= xp_18_1 <= 3.06624907385933
 0 <= xp_18_2 <= 8.19722229633628
 0 <= xp_18_3 <= 3.06624907385933
 0 <= xp_18_4 <= 3.06624907385933
 0 <= xp_19_0 <= 28.6286653107215
 0 <= xp_19_1 <= 2.97379919833674
 0 <= xp_19_2 <= 2.97379919833674
 0 <= xp_19_3 <= 5.94759839667349
 0 <= xp_20_0 <= 26.1633250348393
 0 <= xp_20_1 <= 5.63943214493152
 0 <= xp_20_2 <= 5.13097322247695
 0 <= xp_20_3 <= 2.81971607246576
 0 <= xp_21_0 <= 20.35438605853
 0 <= xp_21_1 <= 2.4807331955496
 0 <= xp_21_2 <= 2.4807331955496
 0 <= xp_21_3 <= 10.2619464449539
 0 <= xp_21_4 <= 2.4807331955496
 0 <= xp_22_0 <= 19.7380535550461
 0 <= xp_22_1 <= 5.13097322247695
 0 <= xp_22_2 <= 2.17256694380763
 0 <= xp_22_3 <= 5.13097322247695
 0 <= xp_22_4 <= 4.34513388761527
 0 <= xp_23_0 <= 24.8690267775231
 0 <= xp_23_1 <= 9.47610711009221
 0 <= xp_23_2 <= 2.17256694380763

End
